28
2 10 19 
3 49 53 44 
2 4 2 
2 34 42 
1 20 
3 15 38 5 
3 16 24 12 
3 1 32 29 
2 55 25 
1 13 
3 43 33 56 
1 48 
3 31 51 54 
1 3 
1 18 
3 17 58 47 
3 36 57 27 
2 59 35 
3 23 37 41 
2 46 45 
3 9 60 22 
1 30 
3 21 50 7 
3 11 6 8 
1 28 
1 26 
3 39 40 14 
1 52 
